96 2 
69 78 
36 86 
91 45 
19 89 
66 16 
29 66 
82 67 
50 84 
23 69 
14 54 
94 22 
3 61 
45 71 
39 16 
32 87 
71 2 
17 7 
88 8 
5 7 
50 71 
75 79 
89 9 
98 39 
93 21 
60 60 
27 55 
82 83 
68 27 
54 8 
44 86 
47 15 
40 65 
74 28 
73 79 
87 23 
2 62 
55 91 
71 53 
31 17 
27 43 
77 54 
98 59 
37 67 
86 43 
27 82 
30 74 
49 70 
39 24 
51 65 
